(set-info :origin "benchmarks generated by liquid types http://goto.ucsd.edu/~rjhala/liquid/")
(set-logic HORN)
(assert (forall ((__cil_tmp4_main Int) (VV Int) (t_main__SSA__blk_0_1 Int))
  (let ((a!1 (and (not (not (= VV 0)))
                  (= __cil_tmp4_main (ite (= t_main__SSA__blk_0_1 2) 1 0))
                  (not (= t_main__SSA__blk_0_1 1))
                  (= t_main__SSA__blk_0_1 2)
                  (= VV __cil_tmp4_main)
                  true)))
    (=> a!1 false))))
(assert (forall ((__cil_tmp3_main Int) (VV Int) (t_main__SSA__blk_0_1 Int))
  (let ((a!1 (and (not (not (= VV 0)))
                  (= __cil_tmp3_main (ite (= t_main__SSA__blk_0_1 1) 1 0))
                  (= t_main__SSA__blk_0_1 1)
                  (= VV __cil_tmp3_main)
                  true)))
    (=> a!1 false))))

(check-sat)
